
n_res = 6;
rcap = [24, 20, 20, 21, 784, 825];
rtype = [1, 1, 1, 1, 2, 2];
n_tasks = 50;
modes =  [{1, 2, 3, 4, 5, 6}, {7, 8, 9, 10, 11, 12}, {13, 14, 15, 16, 17, 18}, {19, 20, 21, 22, 23, 24}, {25, 26, 27, 28, 29, 30}, {31, 32, 33, 34, 35, 36}, {37, 38, 39, 40, 41, 42}, {43, 44, 45, 46, 47, 48}, {49, 50, 51, 52, 53, 54}, {55, 56, 57, 58, 59, 60}, {61, 62, 63, 64, 65, 66}, {67, 68, 69, 70, 71, 72}, {73, 74, 75, 76, 77, 78}, {79, 80, 81, 82, 83, 84}, {85, 86, 87, 88, 89, 90}, {91, 92, 93, 94, 95, 96}, {97, 98, 99, 100, 101, 102}, {103, 104, 105, 106, 107, 108}, {109, 110, 111, 112, 113, 114}, {115, 116, 117, 118, 119, 120}, {121, 122, 123, 124, 125, 126}, {127, 128, 129, 130, 131, 132}, {133, 134, 135, 136, 137, 138}, {139, 140, 141, 142, 143, 144}, {145, 146, 147, 148, 149, 150}, {151, 152, 153, 154, 155, 156}, {157, 158, 159, 160, 161, 162}, {163, 164, 165, 166, 167, 168}, {169, 170, 171, 172, 173, 174}, {175, 176, 177, 178, 179, 180}, {181, 182, 183, 184, 185, 186}, {187, 188, 189, 190, 191, 192}, {193, 194, 195, 196, 197, 198}, {199, 200, 201, 202, 203, 204}, {205, 206, 207, 208, 209, 210}, {211, 212, 213, 214, 215, 216}, {217, 218, 219, 220, 221, 222}, {223, 224, 225, 226, 227, 228}, {229, 230, 231, 232, 233, 234}, {235, 236, 237, 238, 239, 240}, {241, 242, 243, 244, 245, 246}, {247, 248, 249, 250, 251, 252}, {253, 254, 255, 256, 257, 258}, {259, 260, 261, 262, 263, 264}, {265, 266, 267, 268, 269, 270}, {271, 272, 273, 274, 275, 276}, {277, 278, 279, 280, 281, 282}, {283, 284, 285, 286, 287, 288}, {289, 290, 291, 292, 293, 294}, {295, 296, 297, 298, 299, 300}];
succ =  [{19, 17, 15, 11, 10, 9}, {29, 24, 22, 21, 19, 17, 15, 14, 9}, {31, 29, 25, 21, 20, 19, 18, 12}, {26, 24, 22, 18, 17, 10}, {28, 26, 24, 22, 20, 19, 18, 17}, {31, 28, 24, 22, 20, 18, 17}, {28, 26, 24, 20, 18, 17}, {22, 20, 9}, {32, 31, 28, 26, 23, 18}, {49, 39, 31, 29, 28, 25, 20}, {50, 33, 25, 24, 22, 21}, {37, 33, 28, 26, 24, 23, 22}, {50, 38, 37, 36, 33, 32, 30, 22}, {49, 40, 39, 33, 25, 20}, {50, 39, 38, 33, 30, 27, 25}, {50, 49, 38, 33, 27, 25}, {49, 39, 25, 23}, {39, 38, 36, 33, 30, 27}, {49, 47, 39, 36, 32, 27}, {45, 38, 37, 27}, {49, 46, 43, 38, 37, 36, 34}, {40, 27}, {50, 48, 45, 42, 38, 35, 34}, {46, 43, 39, 38, 36, 34}, {47, 46, 36, 34, 32}, {47, 46, 44, 42, 40, 35}, {48, 46, 42, 35, 34}, {50, 46, 43, 42, 41, 40}, {47, 46, 44, 32}, {49, 47, 42, 35}, {50, 48, 47, 45, 41}, {43, 42, 41}, {46, 44, 43}, {44, 41}, {43, 41}, {45, 42}, {47, 44}, {41}, {42}, {45}, {}, {}, {}, {}, {}, {}, {}, {}, {}, {}];
n_opt = 300;
dur = [1, 7, 14, 16, 26, 29, 2, 14, 19, 24, 26, 30, 1, 7, 8, 12, 20, 21, 11, 13, 21, 22, 23, 27, 13, 17, 20, 24, 25, 29, 4, 8, 10, 11, 12, 24, 1, 9, 15, 16, 24, 26, 1, 15, 20, 21, 23, 26, 10, 13, 14, 15, 16, 17, 1, 4, 8, 9, 13, 28, 3, 6, 7, 8, 10, 26, 4, 5, 20, 22, 25, 26, 2, 3, 5, 10, 14, 20, 7, 11, 18, 22, 23, 24, 2, 6, 14, 19, 27, 28, 6, 7, 11, 17, 28, 29, 4, 11, 13, 15, 21, 30, 3, 5, 13, 24, 25, 28, 3, 5, 10, 13, 16, 17, 16, 17, 24, 25, 28, 29, 2, 5, 8, 18, 28, 29, 9, 10, 11, 12, 22, 27, 6, 8, 12, 16, 21, 27, 2, 4, 10, 16, 20, 28, 7, 24, 25, 28, 29, 30, 5, 16, 18, 24, 25, 26, 3, 4, 13, 14, 27, 28, 8, 14, 15, 22, 27, 29, 4, 6, 8, 9, 20, 27, 3, 6, 11, 18, 19, 20, 1, 6, 14, 18, 20, 25, 2, 5, 7, 8, 10, 11, 3, 7, 11, 13, 27, 28, 2, 3, 19, 21, 24, 26, 2, 8, 11, 14, 25, 26, 2, 7, 12, 28, 29, 30, 5, 8, 23, 28, 29, 30, 1, 8, 16, 26, 28, 30, 14, 19, 20, 22, 25, 26, 6, 13, 19, 27, 29, 30, 1, 5, 6, 7, 14, 22, 1, 2, 6, 15, 21, 27, 2, 23, 24, 27, 28, 29, 7, 9, 13, 20, 21, 29, 7, 10, 14, 19, 20, 26, 1, 5, 6, 9, 11, 29, 2, 10, 12, 15, 23, 26, 1, 8, 11, 19, 24, 28, 7, 11, 14, 22, 25, 26, 3, 7, 11, 15, 23, 25];
rreq = [|5, 5, 5, 5, 5, 5, 4, 4, 3, 3, 2, 2, 5, 4, 4, 3, 3, 3, 3, 3, 3, 3, 2, 2, 5, 4, 3, 2, 1, 1, 4, 4, 4, 3, 2, 2, 4, 4, 3, 2, 1, 1, 5, 5, 5, 5, 5, 5, 3, 3, 3, 3, 3, 3, 4, 3, 3, 3, 2, 2, 4, 3, 3, 2, 1, 1, 5, 4, 4, 4, 4, 4, 4, 3, 3, 2, 2, 1, 3, 3, 3, 3, 3, 3, 5, 5, 5, 5, 5, 5, 5, 4, 4, 4, 4, 4, 1, 1, 1, 1, 1, 1, 5, 4, 3, 3, 2, 2, 1, 1, 1, 1, 1, 1, 5, 4, 4, 3, 3, 3, 3, 3, 2, 2, 2, 1, 5, 4, 3, 3, 2, 2, 2, 1, 1, 1, 1, 1, 1, 1, 1, 1, 1, 1, 1, 1, 1, 1, 1, 1, 4, 3, 3, 2, 2, 1, 1, 1, 1, 1, 1, 1, 5, 5, 5, 5, 5, 5, 2, 2, 2, 2, 2, 2, 4, 4, 3, 3, 3, 2, 2, 2, 2, 2, 1, 1, 5, 4, 4, 4, 4, 4, 4, 4, 4, 4, 4, 4, 3, 2, 2, 1, 1, 1, 5, 3, 3, 2, 1, 1, 5, 4, 4, 4, 4, 4, 3, 3, 3, 3, 2, 2, 2, 2, 2, 2, 2, 2, 5, 5, 5, 5, 5, 5, 5, 4, 4, 3, 3, 3, 1, 1, 1, 1, 1, 1, 4, 3, 3, 2, 2, 2, 3, 3, 3, 3, 3, 3, 3, 3, 2, 2, 2, 1, 3, 2, 2, 1, 1, 1, 4, 3, 2, 2, 2, 1, 5, 4, 4, 4, 4, 4, 4, 4, 4, 4, 3, 3, 5, 4, 4, 3, 3, 2, 3, 2, 2, 2, 2, 2
 |3, 3, 3, 3, 3, 3, 2, 1, 1, 1, 1, 1, 3, 3, 3, 3, 3, 3, 4, 3, 3, 3, 3, 3, 2, 2, 2, 2, 2, 2, 4, 4, 4, 4, 4, 4, 2, 2, 2, 1, 1, 1, 5, 4, 3, 3, 2, 2, 3, 3, 3, 2, 2, 1, 4, 3, 3, 3, 1, 1, 1, 1, 1, 1, 1, 1, 3, 2, 2, 1, 1, 1, 5, 3, 3, 2, 2, 1, 1, 1, 1, 1, 1, 1, 3, 2, 2, 2, 2, 2, 4, 3, 3, 3, 3, 3, 4, 4, 3, 3, 2, 2, 5, 4, 4, 4, 4, 4, 3, 3, 3, 3, 3, 3, 2, 2, 2, 2, 2, 2, 3, 3, 2, 2, 2, 1, 4, 3, 3, 2, 2, 2, 4, 4, 4, 4, 4, 4, 2, 2, 2, 2, 2, 2, 5, 4, 3, 3, 2, 2, 5, 5, 5, 5, 5, 5, 4, 4, 3, 3, 2, 2, 4, 4, 4, 4, 4, 4, 3, 3, 3, 2, 2, 1, 5, 4, 4, 3, 3, 2, 3, 3, 3, 3, 3, 3, 1, 1, 1, 1, 1, 1, 4, 3, 3, 3, 2, 2, 2, 2, 2, 2, 2, 2, 5, 4, 3, 3, 1, 1, 5, 4, 3, 3, 2, 1, 5, 4, 4, 3, 3, 3, 2, 1, 1, 1, 1, 1, 2, 2, 2, 2, 1, 1, 4, 3, 3, 3, 3, 3, 5, 5, 5, 5, 5, 5, 3, 3, 2, 2, 1, 1, 3, 3, 3, 3, 3, 3, 4, 4, 4, 3, 3, 3, 2, 2, 2, 1, 1, 1, 4, 3, 3, 3, 3, 3, 4, 4, 4, 3, 3, 2, 3, 3, 3, 3, 3, 3, 2, 2, 2, 1, 1, 1, 2, 1, 1, 1, 1, 1
 |4, 4, 4, 4, 4, 4, 5, 4, 4, 4, 4, 4, 2, 2, 2, 2, 1, 1, 3, 2, 2, 2, 2, 2, 4, 4, 4, 4, 4, 4, 4, 4, 4, 4, 3, 3, 5, 3, 3, 3, 2, 1, 4, 3, 3, 3, 2, 2, 4, 4, 4, 3, 3, 2, 4, 3, 3, 3, 3, 3, 5, 3, 3, 2, 1, 1, 4, 3, 3, 3, 1, 1, 3, 2, 2, 2, 1, 1, 3, 2, 2, 1, 1, 1, 5, 4, 3, 3, 1, 1, 2, 2, 2, 1, 1, 1, 5, 4, 3, 3, 2, 2, 3, 2, 2, 1, 1, 1, 4, 3, 3, 3, 3, 3, 3, 2, 2, 2, 2, 2, 5, 5, 5, 5, 5, 5, 2, 1, 1, 1, 1, 1, 2, 1, 1, 1, 1, 1, 2, 2, 2, 2, 2, 2, 1, 1, 1, 1, 1, 1, 5, 4, 3, 3, 3, 2, 4, 3, 3, 3, 2, 2, 3, 3, 2, 2, 1, 1, 2, 2, 2, 2, 2, 2, 4, 4, 4, 3, 3, 2, 5, 4, 4, 4, 4, 4, 2, 2, 2, 2, 1, 1, 4, 4, 3, 3, 3, 2, 2, 1, 1, 1, 1, 1, 2, 2, 2, 1, 1, 1, 5, 4, 4, 4, 4, 4, 5, 4, 4, 3, 3, 3, 2, 2, 2, 2, 2, 2, 1, 1, 1, 1, 1, 1, 2, 2, 2, 2, 2, 2, 2, 2, 2, 2, 2, 2, 3, 3, 3, 3, 2, 2, 4, 4, 4, 4, 4, 4, 5, 5, 5, 5, 5, 5, 3, 3, 3, 2, 2, 1, 5, 4, 4, 4, 4, 4, 4, 4, 4, 4, 3, 3, 3, 3, 3, 2, 2, 2, 5, 4, 3, 3, 2, 1, 5, 4, 4, 3, 2, 2
 |2, 1, 1, 1, 1, 1, 5, 4, 4, 4, 4, 4, 3, 3, 3, 3, 2, 2, 2, 2, 2, 2, 1, 1, 5, 4, 4, 4, 4, 4, 4, 4, 4, 4, 4, 4, 5, 4, 4, 3, 3, 3, 2, 2, 2, 2, 2, 2, 4, 4, 3, 3, 2, 2, 5, 4, 4, 3, 3, 3, 5, 4, 4, 4, 3, 3, 4, 3, 3, 3, 3, 3, 1, 1, 1, 1, 1, 1, 5, 5, 5, 5, 5, 5, 3, 2, 2, 2, 1, 1, 5, 4, 4, 4, 3, 3, 1, 1, 1, 1, 1, 1, 4, 4, 4, 3, 3, 3, 3, 2, 2, 2, 2, 2, 4, 4, 4, 4, 4, 4, 4, 4, 4, 4, 4, 4, 4, 4, 4, 3, 3, 3, 4, 4, 3, 3, 2, 2, 2, 1, 1, 1, 1, 1, 5, 4, 4, 4, 4, 4, 4, 4, 3, 3, 2, 2, 1, 1, 1, 1, 1, 1, 3, 3, 2, 2, 1, 1, 2, 2, 2, 2, 2, 2, 4, 3, 3, 3, 3, 3, 3, 2, 2, 2, 2, 2, 5, 4, 4, 4, 3, 3, 4, 3, 3, 3, 2, 2, 3, 2, 2, 2, 2, 2, 4, 3, 3, 2, 2, 1, 4, 4, 4, 3, 3, 3, 4, 4, 3, 2, 2, 1, 4, 4, 4, 4, 4, 4, 4, 3, 3, 2, 1, 1, 5, 3, 3, 3, 1, 1, 1, 1, 1, 1, 1, 1, 4, 4, 4, 4, 4, 4, 2, 2, 2, 2, 2, 2, 2, 2, 2, 1, 1, 1, 3, 3, 3, 3, 2, 2, 5, 4, 4, 3, 3, 2, 3, 2, 2, 2, 2, 2, 5, 4, 3, 3, 2, 2, 2, 2, 2, 1, 1, 1, 4, 4, 4, 4, 4, 4
 |13, 12, 10, 9, 6, 5, 16, 14, 14, 13, 12, 11, 23, 21, 21, 19, 16, 16, 26, 24, 23, 19, 18, 15, 29, 24, 18, 13, 10, 9, 7, 7, 6, 5, 4, 4, 17, 14, 13, 12, 9, 8, 27, 22, 16, 12, 9, 7, 16, 15, 14, 12, 12, 11, 17, 14, 13, 11, 9, 9, 10, 10, 10, 9, 8, 8, 25, 21, 20, 17, 13, 12, 28, 27, 23, 22, 20, 19, 25, 22, 20, 18, 15, 14, 27, 23, 22, 19, 14, 10, 14, 14, 14, 14, 14, 14, 13, 13, 13, 13, 12, 12, 11, 11, 11, 11, 11, 11, 24, 21, 15, 12, 9, 5, 18, 12, 11, 9, 3, 2, 20, 20, 20, 20, 19, 19, 27, 24, 23, 22, 21, 20, 22, 20, 20, 18, 18, 16, 26, 21, 20, 11, 6, 3, 25, 24, 23, 23, 22, 22, 10, 7, 5, 5, 2, 1, 26, 21, 15, 14, 8, 4, 29, 26, 22, 22, 16, 16, 23, 20, 15, 15, 12, 9, 12, 10, 9, 8, 5, 4, 29, 27, 25, 24, 22, 21, 25, 21, 18, 15, 9, 7, 25, 23, 20, 18, 15, 15, 13, 13, 11, 7, 6, 3, 23, 21, 19, 17, 17, 15, 18, 17, 15, 15, 12, 11, 29, 25, 21, 18, 17, 14, 20, 19, 18, 16, 15, 15, 26, 25, 23, 21, 16, 15, 22, 21, 21, 21, 21, 21, 30, 27, 25, 23, 21, 20, 24, 19, 16, 16, 10, 7, 24, 24, 24, 24, 24, 24, 15, 14, 13, 13, 12, 12, 2, 1, 1, 1, 1, 1, 14, 14, 13, 13, 12, 12, 15, 14, 14, 14, 14, 14, 15, 15, 14, 14, 12, 12, 23, 18, 12, 11, 7, 2, 11, 9, 8, 5, 4, 3
 |26, 25, 25, 25, 25, 25, 24, 24, 23, 22, 19, 18, 26, 25, 23, 22, 22, 21, 14, 13, 12, 12, 11, 11, 14, 13, 10, 8, 3, 1, 16, 15, 14, 11, 10, 7, 28, 27, 26, 25, 24, 23, 20, 20, 20, 19, 19, 19, 20, 19, 17, 16, 16, 14, 22, 21, 19, 16, 13, 12, 28, 27, 26, 27, 27, 26, 23, 21, 18, 11, 11, 6, 14, 14, 14, 13, 13, 13, 28, 24, 19, 18, 14, 10, 23, 22, 19, 16, 14, 11, 21, 20, 16, 14, 10, 6, 14, 14, 14, 13, 14, 13, 21, 20, 17, 13, 9, 6, 30, 29, 29, 29, 29, 29, 19, 19, 19, 19, 19, 19, 25, 24, 21, 18, 13, 13, 12, 12, 12, 12, 12, 12, 9, 8, 7, 7, 7, 6, 27, 25, 24, 21, 20, 16, 28, 27, 27, 25, 25, 24, 23, 23, 23, 23, 23, 23, 25, 24, 16, 10, 10, 1, 27, 27, 27, 26, 26, 25, 16, 12, 10, 8, 5, 3, 20, 19, 19, 19, 19, 19, 13, 12, 12, 11, 10, 10, 5, 5, 5, 4, 4, 4, 17, 16, 13, 10, 5, 4, 28, 20, 20, 14, 8, 5, 15, 15, 14, 12, 11, 8, 23, 23, 23, 22, 21, 21, 12, 11, 10, 10, 9, 9, 17, 17, 12, 9, 6, 5, 22, 20, 17, 10, 8, 5, 25, 22, 18, 17, 13, 11, 21, 21, 21, 21, 21, 21, 21, 18, 13, 13, 9, 7, 7, 6, 4, 3, 2, 1, 19, 18, 16, 13, 12, 8, 13, 11, 10, 8, 8, 6, 20, 19, 19, 19, 19, 19, 27, 23, 17, 17, 12, 9, 28, 24, 24, 22, 18, 15, 26, 25, 25, 25, 25, 25, 17, 16, 13, 9, 8, 2|];